N = 7;
H = 5;
T = 2;

avail = array3d(1..N, 1..H, 1..T, [5, 7, 10, 6, 3, 9, 1, 5, 5, 8, 7, 3, 8, 9, 9, 10, 8, 9, 4, 0, 1, 1, 8, 3, 2, 7, 0, 0, 1, 8, 0, 5, 7, 10, 4, 8, 0, 5, 7, 7, 5, 6, 10, 2, 1, 4, 7, 3, 5, 5, 10, 1, 7, 8, 7, 9, 5, 2, 6, 5, 7, 4, 5, 1, 3, 4, 9, 7, 9, 3]);

r = array2d(1..H, 1..T, [3, 4, 1, 2, 0, 0, 3, 1, 2, 2]);
